AES/1_3_4/ssaes_r1-20_c3_rw1_e4_f0_k1-20_aes_1base_box_aes_mc_bidirectional/ExperimentMinisat_r15_k5cnf_2011-10-29-153129/Result
WARNING: for repeatability, setting FPU to use double precision
============================[ Problem Statistics ]=============================
|                                                                             |
|  Number of variables:           876                                         |
|  Number of clauses:            3828                                         |
|  Parse time:                   0.00 s                                       |
|  Eliminated clauses:           0.01 Mb                                      |
|  Simplification time:          0.00 s                                       |
|                                                                             |
=============================[ Search Statistics ]==============================
| Conflicts  |          ORIGINAL         |          LEARNT          | Progress |
|            |    Vars  Clauses Literals |    Limit  Clauses Lit/Cl |          |
================================================================================
|        100 |     600     3036     9984 |     1113      100     13 |  9.589 % |
|        250 |     600     3036     9984 |     1224      250     14 |  9.589 % |
|        475 |     600     3036     9984 |     1346      475     14 |  9.589 % |
|        812 |     600     3036     9984 |     1481      812     14 |  9.589 % |
|       1318 |     600     3036     9984 |     1629     1318     13 |  9.589 % |
===============================================================================
restarts              : 11
conflicts             : 1700           (18892 /sec)
decisions             : 1957           (0.00 % random) (21748 /sec)
propagations          : 470593         (5229625 /sec)
conflict literals     : 22221          (38.70 % deleted)
Memory used           : 8.00 MB
CPU time              : 0.089986 s

SATISFIABLE
